3
30
8209
[[601,496,537,833,184,775,932,590,281,682,107,512,962,206,139,732,867,396,694,828,280,510,546,129,158,920,648,426,683,604],
 [399,504,463,167,816,225, 68,410,719,318,893,488, 38,794,861,268,133,604,306,172,720,490,454,871,842, 80,352,574,317,396],
 [ 92, 90, 81, 48,  9, 15, 64, 42, 35, 76, 97, 29, 25, 79,  8, 68, 81, 34, 26, 26, 34, 96, 19, 74, 67, 35, 24, 58, 37, 50]]
[853,554,847,793,916, 29,784, 81,685,724,852,906,548,720,405,828,516,854,211,107,924,815,559,225,103,500, 60,242,621,156]